
Gurobi 8.1.1 (mac64, Python) logging started Thu Jul 25 16:04:39 2019

Academic license - for non-commercial use only
Changed value of parameter Seed to 666
   Prev: 0  Min: 0  Max: 2000000000  Default: 0
Changed value of parameter Method to 1
   Prev: -1  Min: -1  Max: 5  Default: -1
Changed value of parameter NumericFocus to 3
   Prev: 0  Min: 0  Max: 3  Default: 0
Changed value of parameter LogToConsole to 0
   Prev: 1  Min: 0  Max: 1  Default: 1
Optimize a model with 202 rows, 86 columns and 452 nonzeros
Variable types: 0 continuous, 86 integer (86 binary)
Coefficient statistics:
  Matrix range     [1e+00, 1e+03]
  Objective range  [5e-01, 5e-01]
  Bounds range     [1e+00, 1e+00]
  RHS range        [1e+00, 1e+03]
Found heuristic solution: objective -0.0000000
Presolve removed 170 rows and 67 columns
Presolve time: 0.00s
Presolved: 32 rows, 19 columns, 78 nonzeros
Found heuristic solution: objective 14.5000000
Variable types: 0 continuous, 19 integer (19 binary)

Root relaxation: cutoff, 0 iterations, 0.00 seconds

Explored 0 nodes (0 simplex iterations) in 0.00 seconds
Thread count was 8 (of 8 available processors)

Solution count 2: 14.5 10.5 

Optimal solution found (tolerance 1.00e-04)
Best objective 1.450000000000e+01, best bound 1.450000000000e+01, gap 0.0000%
Parameter solutionNumber unchanged
   Value: 0  Min: 0  Max: 2000000000  Default: 0
Changed value of parameter solutionNumber to 1
   Prev: 0  Min: 0  Max: 2000000000  Default: 0
